words_hard_train/3462.qaiger
aag 84 15 0 1 69
2
4
12
14
18
22
26
30
34
48
60
76
96
112
128
169
6 2 4
8 3 5
10 7 9
16 13 15
20 16 19
24 20 23
28 24 27
32 28 31
36 32 35
38 11 37
40 10 36
42 39 41
44 12 14
46 45 17
50 47 48
52 46 49
54 51 53
56 17 18
58 57 21
62 58 61
64 54 63
66 59 60
68 67 12
70 64 68
72 21 22
74 73 25
78 74 77
80 71 79
82 53 63
84 83 67
86 80 85
88 75 76
90 87 89
92 25 26
94 93 29
98 95 96
100 94 97
102 99 101
104 90 102
106 105 101
108 29 30
110 109 33
114 111 112
116 110 113
118 115 117
120 107 118
122 121 117
124 33 34
126 125 37
130 127 128
132 126 129
134 131 133
136 123 134
138 137 133
140 42 139
142 43 138
144 141 143
146 106 119
148 147 121
150 91 103
152 151 105
154 149 153
156 79 89
158 156 70
160 122 135
162 161 137
164 158 163
166 154 164
168 145 167
i0 1 x1[7]
i1 2 y1[7]
i2 2 y1[0]
i3 2 y1[1]
i4 2 y1[2]
i5 2 y1[3]
i6 2 y1[4]
i7 2 y1[5]
i8 2 y1[6]
i9 1 x1[1]
i10 1 x1[2]
i11 1 x1[3]
i12 1 x1[4]
i13 1 x1[5]
i14 1 x1[6]
o0 bv[0]
c
simplified
  <
    subtract
      or
        invert
          1 x1
        1
      2 y1
    1
