words_hard_train/3462.qaiger.qdimacs
p cnf 84 208
a 64 1 38 48 24 56 30 0
e 2 3 4 5 6 7 8 9 10 11 12 13 14 15 16 17 18 19 20 21 22 23 25 26 27 28 29 31 32 33 34 35 36 37 39 40 41 42 43 44 45 46 47 49 50 51 52 53 54 55 57 58 59 60 61 62 63 65 66 67 68 69 70 71 72 73 74 75 76 77 78 79 80 81 82 83 84 0
-1 -2 3 0
1 -3 0
2 -3 0
1 2 4 0
-1 -4 0
-2 -4 0
3 4 5 0
-3 -5 0
-4 -5 0
6 7 8 0
-6 -8 0
-7 -8 0
-8 9 10 0
8 -10 0
-9 -10 0
-10 11 12 0
10 -12 0
-11 -12 0
-12 13 14 0
12 -14 0
-13 -14 0
-14 15 16 0
14 -16 0
-15 -16 0
-16 17 18 0
16 -18 0
-17 -18 0
5 18 19 0
-5 -19 0
-18 -19 0
-5 -18 20 0
5 -20 0
18 -20 0
19 20 21 0
-19 -21 0
-20 -21 0
-6 -7 22 0
6 -22 0
7 -22 0
22 8 23 0
-22 -23 0
-8 -23 0
23 -24 25 0
-23 -25 0
24 -25 0
-23 24 26 0
23 -26 0
-24 -26 0
25 26 27 0
-25 -27 0
-26 -27 0
8 -9 28 0
-8 -28 0
9 -28 0
28 10 29 0
-28 -29 0
-10 -29 0
-29 30 31 0
29 -31 0
-30 -31 0
-27 31 32 0
27 -32 0
-31 -32 0
29 -30 33 0
-29 -33 0
30 -33 0
33 -6 34 0
-33 -34 0
6 -34 0
-32 -34 35 0
32 -35 0
34 -35 0
10 -11 36 0
-10 -36 0
11 -36 0
36 12 37 0
-36 -37 0
-12 -37 0
-37 38 39 0
37 -39 0
-38 -39 0
35 39 40 0
-35 -40 0
-39 -40 0
26 31 41 0
-26 -41 0
-31 -41 0
41 33 42 0
-41 -42 0
-33 -42 0
-40 42 43 0
40 -43 0
-42 -43 0
37 -38 44 0
-37 -44 0
38 -44 0
43 44 45 0
-43 -45 0
-44 -45 0
12 -13 46 0
-12 -46 0
13 -46 0
46 14 47 0
-46 -47 0
-14 -47 0
47 -48 49 0
-47 -49 0
48 -49 0
-47 48 50 0
47 -50 0
-48 -50 0
49 50 51 0
-49 -51 0
-50 -51 0
-45 -51 52 0
45 -52 0
51 -52 0
52 50 53 0
-52 -53 0
-50 -53 0
14 -15 54 0
-14 -54 0
15 -54 0
54 16 55 0
-54 -55 0
-16 -55 0
55 -56 57 0
-55 -57 0
56 -57 0
-55 56 58 0
55 -58 0
-56 -58 0
57 58 59 0
-57 -59 0
-58 -59 0
53 -59 60 0
-53 -60 0
59 -60 0
60 58 61 0
-60 -61 0
-58 -61 0
16 -17 62 0
-16 -62 0
17 -62 0
62 18 63 0
-62 -63 0
-18 -63 0
63 -64 65 0
-63 -65 0
64 -65 0
-63 64 66 0
63 -66 0
-64 -66 0
65 66 67 0
-65 -67 0
-66 -67 0
61 -67 68 0
-61 -68 0
67 -68 0
68 66 69 0
-68 -69 0
-66 -69 0
-21 69 70 0
21 -70 0
-69 -70 0
21 -69 71 0
-21 -71 0
69 -71 0
70 71 72 0
-70 -72 0
-71 -72 0
-53 59 73 0
53 -73 0
-59 -73 0
73 60 74 0
-73 -74 0
-60 -74 0
45 51 75 0
-45 -75 0
-51 -75 0
75 52 76 0
-75 -76 0
-52 -76 0
74 76 77 0
-74 -77 0
-76 -77 0
39 44 78 0
-39 -78 0
-44 -78 0
-78 -35 79 0
78 -79 0
35 -79 0
-61 67 80 0
61 -80 0
-67 -80 0
80 68 81 0
-80 -81 0
-68 -81 0
-79 81 82 0
79 -82 0
-81 -82 0
-77 -82 83 0
77 -83 0
82 -83 0
72 83 84 0
-72 -84 0
-83 -84 0
-84 0
